Minimize
  w_j9_k0_n0 + w_j9_k1_n0 + w_j9_k2_n0 + w_j9_k3_n0 + w_j9_k4_n0
Subject To
 6a_n0: w_j0_k0_n0 + w_j0_k1_n0 + w_j0_k2_n0 + w_j0_k3_n0 + w_j0_k4_n0
   - 25096.99999559667 y_j0_k0 - 25078.00070623897 y_j0_k1
   - 7.669355521075198 y_j0_k2 - 1.77667e-06 y_j0_k3 = 0
 6b_j1_n0: w_j0_k0_n0 - 1.000000000175452 w_j1_k0_n0 + w_j0_k1_n0
   - 1.000757607992103 w_j1_k1_n0 + w_j0_k2_n0
   - 3272.374051644114 w_j1_k2_n0 + w_j0_k3_n0 + w_j0_k4_n0 = 0
 6b_j2_n0: w_j1_k0_n0 - 1.000000000175452 w_j2_k0_n0 + w_j1_k1_n0
   - 1.000757607992103 w_j2_k1_n0 + w_j1_k2_n0
   - 3272.374051644114 w_j2_k2_n0 + w_j1_k3_n0 + w_j1_k4_n0 = 0
 6b_j3_n0: w_j2_k0_n0 - 1.000000000175452 w_j3_k0_n0 + w_j2_k1_n0
   - 1.000757607992103 w_j3_k1_n0 + w_j2_k2_n0
   - 3272.374051644114 w_j3_k2_n0 + w_j2_k3_n0 + w_j2_k4_n0 = 0
 6b_j4_n0: w_j3_k0_n0 - 1.000000000175452 w_j4_k0_n0 + w_j3_k1_n0
   - 1.000757607992103 w_j4_k1_n0 + w_j3_k2_n0
   - 3272.374051644114 w_j4_k2_n0 + w_j3_k3_n0 + w_j3_k4_n0 = 0
 6b_j5_n0: w_j4_k0_n0 + w_j4_k1_n0 - 1320.943836948494 w_j5_k1_n0
   + w_j4_k2_n0 - 1.000305681950218 w_j5_k2_n0 + w_j4_k3_n0 - w_j5_k3_n0
   + w_j4_k4_n0 - w_j5_k4_n0 = 0
 6b_j6_n0: w_j5_k0_n0 + w_j5_k1_n0 - 1320.943836948494 w_j6_k1_n0
   + w_j5_k2_n0 - 1.000305681950218 w_j6_k2_n0 + w_j5_k3_n0 - w_j6_k3_n0
   + w_j5_k4_n0 - w_j6_k4_n0 = 0
 6b_j7_n0: w_j6_k0_n0 - 1.000000000175452 w_j7_k0_n0 + w_j6_k1_n0
   - 1.000757607992103 w_j7_k1_n0 + w_j6_k2_n0
   - 3272.374051644114 w_j7_k2_n0 + w_j6_k3_n0 + w_j6_k4_n0 = 0
 6b_j8_n0: w_j7_k0_n0 - 1.000000000175452 w_j8_k0_n0 + w_j7_k1_n0
   - 1.000757607992103 w_j8_k1_n0 + w_j7_k2_n0
   - 3272.374051644114 w_j8_k2_n0 + w_j7_k3_n0 + w_j7_k4_n0 = 0
 6b_j9_n0: w_j8_k0_n0 - 1.000000000175452 w_j9_k0_n0 + w_j8_k1_n0
   - 1.000757607992103 w_j9_k1_n0 + w_j8_k2_n0
   - 3272.374051644114 w_j9_k2_n0 + w_j8_k3_n0 + w_j8_k4_n0 = 0
 6c_j0_k0_n0: w_j0_k0_n0 - 25097 y_j0_k0 <= 0
 6c_j1_k0_n0: w_j1_k0_n0 - 25097 y_j1_k0 <= 0
 6c_j2_k0_n0: w_j2_k0_n0 - 25097 y_j2_k0 <= 0
 6c_j3_k0_n0: w_j3_k0_n0 - 25097 y_j3_k0 <= 0
 6c_j4_k0_n0: w_j4_k0_n0 - 25097 y_j4_k0 <= 0
 6c_j5_k0_n0: w_j5_k0_n0 - 25097 y_j5_k0 <= 0
 6c_j6_k0_n0: w_j6_k0_n0 - 25097 y_j6_k0 <= 0
 6c_j7_k0_n0: w_j7_k0_n0 - 25097 y_j7_k0 <= 0
 6c_j8_k0_n0: w_j8_k0_n0 - 25097 y_j8_k0 <= 0
 6c_j9_k0_n0: w_j9_k0_n0 - 25097 y_j9_k0 <= 0
 6c_j0_k1_n0: w_j0_k1_n0 - 25097 y_j0_k1 <= 0
 6c_j1_k1_n0: w_j1_k1_n0 - 25097 y_j1_k1 <= 0
 6c_j2_k1_n0: w_j2_k1_n0 - 25097 y_j2_k1 <= 0
 6c_j3_k1_n0: w_j3_k1_n0 - 25097 y_j3_k1 <= 0
 6c_j4_k1_n0: w_j4_k1_n0 - 25097 y_j4_k1 <= 0
 6c_j5_k1_n0: w_j5_k1_n0 - 25097 y_j5_k1 <= 0
 6c_j6_k1_n0: w_j6_k1_n0 - 25097 y_j6_k1 <= 0
 6c_j7_k1_n0: w_j7_k1_n0 - 25097 y_j7_k1 <= 0
 6c_j8_k1_n0: w_j8_k1_n0 - 25097 y_j8_k1 <= 0
 6c_j9_k1_n0: w_j9_k1_n0 - 25097 y_j9_k1 <= 0
 6c_j0_k2_n0: w_j0_k2_n0 - 25097 y_j0_k2 <= 0
 6c_j1_k2_n0: w_j1_k2_n0 - 25097 y_j1_k2 <= 0
 6c_j2_k2_n0: w_j2_k2_n0 - 25097 y_j2_k2 <= 0
 6c_j3_k2_n0: w_j3_k2_n0 - 25097 y_j3_k2 <= 0
 6c_j4_k2_n0: w_j4_k2_n0 - 25097 y_j4_k2 <= 0
 6c_j5_k2_n0: w_j5_k2_n0 - 25097 y_j5_k2 <= 0
 6c_j6_k2_n0: w_j6_k2_n0 - 25097 y_j6_k2 <= 0
 6c_j7_k2_n0: w_j7_k2_n0 - 25097 y_j7_k2 <= 0
 6c_j8_k2_n0: w_j8_k2_n0 - 25097 y_j8_k2 <= 0
 6c_j9_k2_n0: w_j9_k2_n0 - 25097 y_j9_k2 <= 0
 6c_j0_k3_n0: w_j0_k3_n0 - 25097 y_j0_k3 <= 0
 6c_j1_k3_n0: w_j1_k3_n0 - 25097 y_j1_k3 <= 0
 6c_j2_k3_n0: w_j2_k3_n0 - 25097 y_j2_k3 <= 0
 6c_j3_k3_n0: w_j3_k3_n0 - 25097 y_j3_k3 <= 0
 6c_j4_k3_n0: w_j4_k3_n0 - 25097 y_j4_k3 <= 0
 6c_j5_k3_n0: w_j5_k3_n0 - 25097 y_j5_k3 <= 0
 6c_j6_k3_n0: w_j6_k3_n0 - 25097 y_j6_k3 <= 0
 6c_j7_k3_n0: w_j7_k3_n0 - 25097 y_j7_k3 <= 0
 6c_j8_k3_n0: w_j8_k3_n0 - 25097 y_j8_k3 <= 0
 6c_j9_k3_n0: w_j9_k3_n0 - 25097 y_j9_k3 <= 0
 6c_j0_k4_n0: w_j0_k4_n0 - 25097 y_j0_k4 <= 0
 6c_j1_k4_n0: w_j1_k4_n0 - 25097 y_j1_k4 <= 0
 6c_j2_k4_n0: w_j2_k4_n0 - 25097 y_j2_k4 <= 0
 6c_j3_k4_n0: w_j3_k4_n0 - 25097 y_j3_k4 <= 0
 6c_j4_k4_n0: w_j4_k4_n0 - 25097 y_j4_k4 <= 0
 6c_j5_k4_n0: w_j5_k4_n0 - 25097 y_j5_k4 <= 0
 6c_j6_k4_n0: w_j6_k4_n0 - 25097 y_j6_k4 <= 0
 6c_j7_k4_n0: w_j7_k4_n0 - 25097 y_j7_k4 <= 0
 6c_j8_k4_n0: w_j8_k4_n0 - 25097 y_j8_k4 <= 0
 6c_j9_k4_n0: w_j9_k4_n0 - 25097 y_j9_k4 <= 0
 6e: 500 y_j0_k0 + 500 y_j1_k0 + 500 y_j2_k0 + 500 y_j3_k0 + 500 y_j4_k0
   + 500 y_j5_k0 + 500 y_j6_k0 + 500 y_j7_k0 + 500 y_j8_k0 + 500 y_j9_k0
   + 800 y_j0_k1 + 800 y_j1_k1 + 800 y_j2_k1 + 800 y_j3_k1 + 800 y_j4_k1
   + 800 y_j5_k1 + 800 y_j6_k1 + 800 y_j7_k1 + 800 y_j8_k1 + 800 y_j9_k1
   + 1000 y_j0_k2 + 1000 y_j1_k2 + 1000 y_j2_k2 + 1000 y_j3_k2
   + 1000 y_j4_k2 + 1000 y_j5_k2 + 1000 y_j6_k2 + 1000 y_j7_k2
   + 1000 y_j8_k2 + 1000 y_j9_k2 + 1200 y_j0_k3 + 1200 y_j1_k3
   + 1200 y_j2_k3 + 1200 y_j3_k3 + 1200 y_j4_k3 + 1200 y_j5_k3
   + 1200 y_j6_k3 + 1200 y_j7_k3 + 1200 y_j8_k3 + 1200 y_j9_k3
   + 1500 y_j0_k4 + 1500 y_j1_k4 + 1500 y_j2_k4 + 1500 y_j3_k4
   + 1500 y_j4_k4 + 1500 y_j5_k4 + 1500 y_j6_k4 + 1500 y_j7_k4
   + 1500 y_j8_k4 + 1500 y_j9_k4 <= 5600
 6f_j0: y_j0_k0 + y_j0_k1 + y_j0_k2 + y_j0_k3 + y_j0_k4 = 1
 6f_j1: y_j1_k0 + y_j1_k1 + y_j1_k2 + y_j1_k3 + y_j1_k4 = 1
 6f_j2: y_j2_k0 + y_j2_k1 + y_j2_k2 + y_j2_k3 + y_j2_k4 = 1
 6f_j3: y_j3_k0 + y_j3_k1 + y_j3_k2 + y_j3_k3 + y_j3_k4 = 1
 6f_j4: y_j4_k0 + y_j4_k1 + y_j4_k2 + y_j4_k3 + y_j4_k4 = 1
 6f_j5: y_j5_k0 + y_j5_k1 + y_j5_k2 + y_j5_k3 + y_j5_k4 = 1
 6f_j6: y_j6_k0 + y_j6_k1 + y_j6_k2 + y_j6_k3 + y_j6_k4 = 1
 6f_j7: y_j7_k0 + y_j7_k1 + y_j7_k2 + y_j7_k3 + y_j7_k4 = 1
 6f_j8: y_j8_k0 + y_j8_k1 + y_j8_k2 + y_j8_k3 + y_j8_k4 = 1
 6f_j9: y_j9_k0 + y_j9_k1 + y_j9_k2 + y_j9_k3 + y_j9_k4 = 1
Bounds
Binaries
 y_j0_k0 y_j1_k0 y_j2_k0 y_j3_k0 y_j4_k0 y_j5_k0 y_j6_k0 y_j7_k0 y_j8_k0
 y_j9_k0 y_j0_k1 y_j1_k1 y_j2_k1 y_j3_k1 y_j4_k1 y_j5_k1 y_j6_k1 y_j7_k1
 y_j8_k1 y_j9_k1 y_j0_k2 y_j1_k2 y_j2_k2 y_j3_k2 y_j4_k2 y_j5_k2 y_j6_k2
 y_j7_k2 y_j8_k2 y_j9_k2 y_j0_k3 y_j1_k3 y_j2_k3 y_j3_k3 y_j4_k3 y_j5_k3
 y_j6_k3 y_j7_k3 y_j8_k3 y_j9_k3 y_j0_k4 y_j1_k4 y_j2_k4 y_j3_k4 y_j4_k4
 y_j5_k4 y_j6_k4 y_j7_k4 y_j8_k4 y_j9_k4
End
